c CNF generator v0.9
p cnf 50 50
31 -50 2 0
27 -13 33 0
43 48 -10 0
-17 -45 48 0
47 11 -8 0
35 49 15 0
-20 38 -24 0
3 30 -2 0
-8 -32 -3 0
48 -16 39 0
34 16 -24 0
27 -24 13 0
9 38 -22 0
-24 24 47 0
8 -18 22 0
8 -44 -19 0
18 -46 -35 0
-17 -29 26 0
-23 4 -33 0
-29 26 23 0
3 43 -22 0
-4 -19 -16 0
7 34 29 0
26 -5 42 0
-32 16 -19 0
43 16 45 0
13 41 -11 0
36 31 -37 0
-5 -50 23 0
34 -43 -44 0
-42 14 30 0
-19 20 49 0
24 -46 29 0
-42 -21 41 0
30 -6 24 0
14 -34 38 0
-15 -50 47 0
9 -9 -41 0
21 1 41 0
49 -24 -18 0
12 3 -19 0
13 27 -1 0
38 37 48 0
-5 32 4 0
11 -21 -35 0
5 10 47 0
25 9 -45 0
41 -35 -30 0
36 41 -16 0
-17 -21 -1 0
